100
147 49 490 99 49 55 55 343 55 98 343 343 49 392 66 33 49 147 441 392 110 11 66 22 88 294 77 22 11 77 98 343 490 343 490 55 110 343 77 245 88 147 196 77 441 77 98 147 196 11 441 147 99 392 88 147 294 343 11 77 88 245 66 88 66 33 55 88 245 11 392 441 110 196 110 490 441 33 33 294 294 66 77 22 33 22 110 98 66 392 99 343 55 245 441 99 110 441 392 441 
447 149 1490 999 149 555 555 1043 555 298 1043 1043 149 1192 666 333 149 447 1341 1192 1110 111 666 222 888 894 777 222 111 777 298 1043 1490 1043 1490 555 1110 1043 777 745 888 447 596 777 1341 777 298 447 596 111 1341 447 999 1192 888 447 894 1043 111 777 888 745 666 888 666 333 555 888 745 111 1192 1341 1110 596 1110 1490 1341 333 333 894 894 666 777 222 333 222 1110 298 666 1192 999 1043 555 745 1341 999 1110 1341 1192 1341 
8888
